100
30
4
22
29
16
10
32
19
32
20
19
8
1
5
11
12
5
5
26
15
16
15
26
17
11
19
1
27
27
10
8
10
11
32
30
25
6
29
19
2
1
7
20
9
8
4
19
31
3
23
14
32
2
28
21
11
29
8
26
10
12
10
16
13
17
17
19
31
20
5
9
9
3
22
23
21
19
10
28
26
18
15
6
5
29
30
11
19
18
18
29
18
16
17
1
26
27
1
25
6
6